# Objective value = 6
x0,1_7 0
x0,1_8 0
x0,1_9 1
x0,1_10 0
x0,1_12 0
x0,1_20 0
x0,1_22 0
x0,1_30 0
x0,1_39 0
x0,2_7 0
x0,2_8 0
x0,2_9 0
x0,2_10 0
x0,2_12 0
x0,2_20 0
x0,2_22 0
x0,2_30 0
x0,2_39 0
x0,3_7 0
x0,3_8 0
x0,3_9 0
x0,3_10 0
x0,3_12 0
x0,3_20 0
x0,3_22 0
x0,3_30 0
x0,3_39 0
x0,4_7 0
x0,4_8 0
x0,4_9 0
x0,4_10 0
x0,4_12 0
x0,4_20 0
x0,4_22 0
x0,4_30 0
x0,4_39 0
x0,5_7 0
x0,5_8 0
x0,5_9 0
x0,5_10 0
x0,5_12 0
x0,5_20 0
x0,5_22 0
x0,5_30 0
x0,5_39 1
x0,6_7 0
x0,6_8 0
x0,6_9 0
x0,6_10 0
x0,6_12 0
x0,6_20 0
x0,6_22 0
x0,6_30 0
x0,6_39 0
x0,7_7 0
x0,7_8 0
x0,7_9 0
x0,7_10 0
x0,7_12 0
x0,7_20 0
x0,7_22 0
x0,7_30 0
x0,7_39 0
x0,8_7 0
x0,8_8 0
x0,8_9 0
x0,8_10 0
x0,8_12 0
x0,8_20 0
x0,8_22 0
x0,8_30 0
x0,8_39 0
x0,9_7 0
x0,9_8 0
x0,9_9 0
x0,9_10 0
x0,9_12 0
x0,9_20 0
x0,9_22 0
x0,9_30 0
x0,9_39 0
x1,2_7 0
x1,2_8 1
x1,2_9 0
x1,2_10 0
x1,2_12 0
x1,2_20 0
x1,2_22 0
x1,2_30 0
x1,2_39 0
x1,3_7 0
x1,3_8 0
x1,3_9 0
x1,3_10 0
x1,3_12 0
x1,3_20 0
x1,3_22 0
x1,3_30 0
x1,3_39 0
x1,4_7 0
x1,4_8 0
x1,4_9 0
x1,4_10 0
x1,4_12 0
x1,4_20 1
x1,4_22 0
x1,4_30 0
x1,4_39 0
x1,5_7 0
x1,5_8 0
x1,5_9 0
x1,5_10 0
x1,5_12 0
x1,5_20 0
x1,5_22 0
x1,5_30 1
x1,5_39 0
x1,6_7 0
x1,6_8 0
x1,6_9 0
x1,6_10 0
x1,6_12 0
x1,6_20 0
x1,6_22 0
x1,6_30 0
x1,6_39 0
x1,7_7 0
x1,7_8 0
x1,7_9 0
x1,7_10 0
x1,7_12 0
x1,7_20 0
x1,7_22 0
x1,7_30 0
x1,7_39 0
x1,8_7 0
x1,8_8 0
x1,8_9 0
x1,8_10 0
x1,8_12 0
x1,8_20 0
x1,8_22 0
x1,8_30 0
x1,8_39 0
x1,9_7 0
x1,9_8 0
x1,9_9 0
x1,9_10 0
x1,9_12 0
x1,9_20 0
x1,9_22 0
x1,9_30 0
x1,9_39 0
x2,3_7 0
x2,3_8 0
x2,3_9 0
x2,3_10 0
x2,3_12 0
x2,3_20 0
x2,3_22 0
x2,3_30 0
x2,3_39 0
x2,4_7 0
x2,4_8 0
x2,4_9 0
x2,4_10 0
x2,4_12 1
x2,4_20 0
x2,4_22 0
x2,4_30 0
x2,4_39 0
x2,5_7 0
x2,5_8 0
x2,5_9 0
x2,5_10 0
x2,5_12 0
x2,5_20 0
x2,5_22 1
x2,5_30 0
x2,5_39 0
x2,6_7 0
x2,6_8 0
x2,6_9 0
x2,6_10 0
x2,6_12 0
x2,6_20 0
x2,6_22 0
x2,6_30 0
x2,6_39 0
x2,7_7 0
x2,7_8 0
x2,7_9 0
x2,7_10 0
x2,7_12 0
x2,7_20 0
x2,7_22 0
x2,7_30 0
x2,7_39 0
x2,8_7 0
x2,8_8 0
x2,8_9 0
x2,8_10 0
x2,8_12 0
x2,8_20 0
x2,8_22 0
x2,8_30 0
x2,8_39 0
x2,9_7 0
x2,9_8 0
x2,9_9 0
x2,9_10 0
x2,9_12 0
x2,9_20 0
x2,9_22 0
x2,9_30 0
x2,9_39 0
x3,4_7 1
x3,4_8 0
x3,4_9 0
x3,4_10 0
x3,4_12 0
x3,4_20 0
x3,4_22 0
x3,4_30 0
x3,4_39 0
x3,5_7 0
x3,5_8 0
x3,5_9 0
x3,5_10 0
x3,5_12 0
x3,5_20 0
x3,5_22 0
x3,5_30 0
x3,5_39 0
x3,6_7 0
x3,6_8 0
x3,6_9 0
x3,6_10 0
x3,6_12 0
x3,6_20 0
x3,6_22 0
x3,6_30 0
x3,6_39 0
x3,7_7 0
x3,7_8 0
x3,7_9 0
x3,7_10 0
x3,7_12 0
x3,7_20 0
x3,7_22 0
x3,7_30 0
x3,7_39 0
x3,8_7 0
x3,8_8 0
x3,8_9 0
x3,8_10 0
x3,8_12 0
x3,8_20 0
x3,8_22 0
x3,8_30 0
x3,8_39 0
x3,9_7 0
x3,9_8 0
x3,9_9 0
x3,9_10 0
x3,9_12 0
x3,9_20 0
x3,9_22 0
x3,9_30 0
x3,9_39 0
x4,5_7 0
x4,5_8 0
x4,5_9 0
x4,5_10 1
x4,5_12 0
x4,5_20 0
x4,5_22 0
x4,5_30 0
x4,5_39 0
x4,6_7 0
x4,6_8 0
x4,6_9 0
x4,6_10 0
x4,6_12 0
x4,6_20 0
x4,6_22 0
x4,6_30 0
x4,6_39 0
x4,7_7 0
x4,7_8 0
x4,7_9 0
x4,7_10 0
x4,7_12 0
x4,7_20 0
x4,7_22 0
x4,7_30 0
x4,7_39 0
x4,8_7 0
x4,8_8 0
x4,8_9 0
x4,8_10 0
x4,8_12 0
x4,8_20 0
x4,8_22 0
x4,8_30 0
x4,8_39 0
x4,9_7 0
x4,9_8 0
x4,9_9 0
x4,9_10 0
x4,9_12 0
x4,9_20 0
x4,9_22 0
x4,9_30 0
x4,9_39 0
x5,6_7 0
x5,6_8 0
x5,6_9 0
x5,6_10 0
x5,6_12 0
x5,6_20 0
x5,6_22 0
x5,6_30 0
x5,6_39 0
x5,7_7 0
x5,7_8 0
x5,7_9 0
x5,7_10 0
x5,7_12 0
x5,7_20 0
x5,7_22 0
x5,7_30 0
x5,7_39 0
x5,8_7 0
x5,8_8 0
x5,8_9 0
x5,8_10 0
x5,8_12 0
x5,8_20 0
x5,8_22 0
x5,8_30 0
x5,8_39 0
x5,9_7 0
x5,9_8 0
x5,9_9 0
x5,9_10 0
x5,9_12 0
x5,9_20 0
x5,9_22 0
x5,9_30 0
x5,9_39 0
x6,7_7 0
x6,7_8 0
x6,7_9 0
x6,7_10 0
x6,7_12 0
x6,7_20 0
x6,7_22 0
x6,7_30 0
x6,7_39 0
x6,8_7 0
x6,8_8 0
x6,8_9 0
x6,8_10 0
x6,8_12 0
x6,8_20 0
x6,8_22 0
x6,8_30 0
x6,8_39 0
x6,9_7 0
x6,9_8 0
x6,9_9 0
x6,9_10 0
x6,9_12 0
x6,9_20 0
x6,9_22 0
x6,9_30 0
x6,9_39 0
x7,8_7 0
x7,8_8 0
x7,8_9 0
x7,8_10 0
x7,8_12 0
x7,8_20 0
x7,8_22 0
x7,8_30 0
x7,8_39 0
x7,9_7 0
x7,9_8 0
x7,9_9 0
x7,9_10 0
x7,9_12 0
x7,9_20 0
x7,9_22 0
x7,9_30 0
x7,9_39 0
x8,9_7 0
x8,9_8 0
x8,9_9 0
x8,9_10 0
x8,9_12 0
x8,9_20 0
x8,9_22 0
x8,9_30 0
x8,9_39 0
z0 1
z1 1
z2 1
z3 1
z4 1
z5 1
z6 0
z7 0
z8 0
z9 0
p0 1
p1 10
p2 18
p3 23
p4 30
p5 40
p6 41
p7 42
p8 43
p9 44
